22011.0
12, 26, 29, 50, 72, 89, 106, 141, 157, 169, 203, 242, 268, 271, 292, 294, 302, 313, 369, 373, 385, 432, 462, 475, 479, 487, 503, 538, 562, 567, 583, 589, 637, 668, 675, 694, 721, 739, 758, 820, 838, 842, 849, 850, 851, 852, 892, 909, 920, 921, 927, 952, 958, 965, 969, 988, 1097, 1100, 1106, 1111, 1119, 1121, 1159, 1167, 1170, 1184, 1193, 1198, 1261, 1267, 1273, 1290, 1302, 1309, 1314, 1326, 1328, 1338, 1351, 1353, 1367, 1369, 1411, 1445, 1450, 1472, 1474, 1525, 1561, 1599, 1605, 1615, 1617, 1637, 1644, 1648, 1651, 1657, 1660, 1676, 1679, 1681, 1695, 1697, 1698, 1710, 1733, 1759, 1761, 1828, 1834, 1835, 1849, 1874, 1877, 1899, 1933, 1940, 1972, 1977, 1984, 1986